(set-info :smt-lib-version 2.6)
(set-logic QF_SLIA)
(set-info :source |
Generated by: Joel Day, Thorsten Ehlers, Mitja Kulczynski, Federico Mora, Florin Manea, Dirk Nowotka, Danny Poulsen, Zhengyang Lu
Application: Test WOORPJE
Target solver: WOORPJE
Publications: Day, J. D., Ehlers, T., Kulczynski, M., Manea, F., Nowotka, D., & Poulsen, D. B. (2019). On solving word equations using SAT. In RP 2019
Description: Enriches a system of 30 word equations by suitable linear constraints
|)
(set-info :license "https://creativecommons.org/licenses/by/4.0/")
(set-info :category "random")
(set-info :status unknown)

(declare-fun H () String)
(declare-fun G () String)
(declare-fun E () String)
(declare-fun F () String)
(assert (= (str.++  G "fbcbfbc" "")  (str.++  "edeedfacfbbccf" E "fbc") ))
(assert (= (str.++  "adcaadacaff" F "bc" H "f" H "dbedcfebcaeecacffcdbd" H)  (str.++  "ad" H "aadacaff" F "b" H H "f" H "dbedcfeb" H "aeecacff" H "dbdc") ))
(assert (= (str.++  "ddaedcb" H "afadbbf" H "afeeda" H "fd" H "edbdebfbdd" H "ade")  (str.++  "ddaed" H "b" H "afadbbfcafeedacfdcedbdebfbddcade") ))
(assert (>=(* (str.len G) 5) 45))
(assert (<=(* (str.len G) 1) 458))
(assert (<=(* (str.len H) 6) 12))
(assert (<=(* (str.len F) 2) 4))
(assert (>=(* (str.len E) 15) 60))
(assert (<=(* (str.len E) 15) 390))
(check-sat)

(exit)
